c This file is generated by _findSolu
c Generated on Mon Nov  9 17:03:56 2015
p cnf 224 580
-1 -3 -17 0
1 17 0
3 17 0
-3 -4 -14 0
3 14 0
4 14 0
-2 -33 -16 0
2 16 0
33 16 0
-5 -33 -15 0
5 15 0
33 15 0
-20 -16 -12 0
20 12 0
16 12 0
-15 -15 -13 0
15 13 0
15 13 0
6 18 0
-6 -18 0
7 19 0
-7 -19 0
-1 -18 21 0
1 -21 0
18 -21 0
-17 -6 22 0
17 -22 0
6 -22 0
-4 -18 23 0
4 -23 0
18 -23 0
-17 -6 24 0
17 -24 0
6 -24 0
-21 -19 25 0
21 -25 0
19 -25 0
-22 -7 26 0
22 -26 0
7 -26 0
-23 -19 27 0
23 -27 0
19 -27 0
-24 -7 28 0
24 -28 0
7 -28 0
25 26 -29 0
-25 29 0
-26 29 0
27 29 -30 0
-27 30 0
-29 30 0
30 28 -20 0
-30 20 0
-28 20 0
8 31 0
-8 -31 0
9 32 0
-9 -32 0
-1 -31 34 0
1 -34 0
31 -34 0
-14 -8 35 0
14 -35 0
8 -35 0
-4 -31 36 0
4 -36 0
31 -36 0
-14 -8 37 0
14 -37 0
8 -37 0
-34 -32 38 0
34 -38 0
32 -38 0
-35 -9 39 0
35 -39 0
9 -39 0
-36 -32 40 0
36 -40 0
32 -40 0
-37 -9 41 0
37 -41 0
9 -41 0
38 39 -42 0
-38 42 0
-39 42 0
40 42 -43 0
-40 43 0
-42 43 0
43 41 -33 0
-43 33 0
-41 33 0
10 44 0
-10 -44 0
11 45 0
-11 -45 0
-1 -44 47 0
1 -47 0
44 -47 0
-14 -10 48 0
14 -48 0
10 -48 0
-4 -44 49 0
4 -49 0
44 -49 0
-14 -10 50 0
14 -50 0
10 -50 0
-47 -45 51 0
47 -51 0
45 -51 0
-48 -11 52 0
48 -52 0
11 -52 0
-49 -45 53 0
49 -53 0
45 -53 0
-50 -11 54 0
50 -54 0
11 -54 0
51 52 -55 0
-51 55 0
-52 55 0
53 55 -56 0
-53 56 0
-55 56 0
56 54 -46 0
-56 46 0
-54 46 0
-1 0
-2 0
3 0
4 0
-5 0
-12 0
-13 0
c New duplicated circuit:
-57 -59 -73 0
57 73 0
59 73 0
-59 -60 -70 0
59 70 0
60 70 0
-58 -89 -72 0
58 72 0
89 72 0
-61 -89 -71 0
61 71 0
89 71 0
-76 -72 -68 0
76 68 0
72 68 0
-71 -71 -69 0
71 69 0
71 69 0
62 74 0
-62 -74 0
63 75 0
-63 -75 0
-57 -74 77 0
57 -77 0
74 -77 0
-73 -62 78 0
73 -78 0
62 -78 0
-60 -74 79 0
60 -79 0
74 -79 0
-73 -62 80 0
73 -80 0
62 -80 0
-77 -75 81 0
77 -81 0
75 -81 0
-78 -63 82 0
78 -82 0
63 -82 0
-79 -75 83 0
79 -83 0
75 -83 0
-80 -63 84 0
80 -84 0
63 -84 0
81 82 -85 0
-81 85 0
-82 85 0
83 85 -86 0
-83 86 0
-85 86 0
86 84 -76 0
-86 76 0
-84 76 0
64 87 0
-64 -87 0
65 88 0
-65 -88 0
-57 -87 90 0
57 -90 0
87 -90 0
-70 -64 91 0
70 -91 0
64 -91 0
-60 -87 92 0
60 -92 0
87 -92 0
-70 -64 93 0
70 -93 0
64 -93 0
-90 -88 94 0
90 -94 0
88 -94 0
-91 -65 95 0
91 -95 0
65 -95 0
-92 -88 96 0
92 -96 0
88 -96 0
-93 -65 97 0
93 -97 0
65 -97 0
94 95 -98 0
-94 98 0
-95 98 0
96 98 -99 0
-96 99 0
-98 99 0
99 97 -89 0
-99 89 0
-97 89 0
66 100 0
-66 -100 0
67 101 0
-67 -101 0
-57 -100 103 0
57 -103 0
100 -103 0
-70 -66 104 0
70 -104 0
66 -104 0
-60 -100 105 0
60 -105 0
100 -105 0
-70 -66 106 0
70 -106 0
66 -106 0
-103 -101 107 0
103 -107 0
101 -107 0
-104 -67 108 0
104 -108 0
67 -108 0
-105 -101 109 0
105 -109 0
101 -109 0
-106 -67 110 0
106 -110 0
67 -110 0
107 108 -111 0
-107 111 0
-108 111 0
109 111 -112 0
-109 112 0
-111 112 0
112 110 -102 0
-112 102 0
-110 102 0
6 -62 0
-6 62 0
7 -63 0
-7 63 0
8 -64 0
-8 64 0
9 -65 0
-9 65 0
10 -66 0
-10 66 0
11 -67 0
-11 67 0
-57 0
58 0
59 0
60 0
-61 0
-68 0
-69 0
c New duplicated circuit:
-113 -115 -129 0
113 129 0
115 129 0
-115 -116 -126 0
115 126 0
116 126 0
-114 -145 -128 0
114 128 0
145 128 0
-117 -145 -127 0
117 127 0
145 127 0
-132 -128 -124 0
132 124 0
128 124 0
-127 -127 -125 0
127 125 0
127 125 0
118 130 0
-118 -130 0
119 131 0
-119 -131 0
-113 -130 133 0
113 -133 0
130 -133 0
-129 -118 134 0
129 -134 0
118 -134 0
-116 -130 135 0
116 -135 0
130 -135 0
-129 -118 136 0
129 -136 0
118 -136 0
-133 -131 137 0
133 -137 0
131 -137 0
-134 -119 138 0
134 -138 0
119 -138 0
-135 -131 139 0
135 -139 0
131 -139 0
-136 -119 140 0
136 -140 0
119 -140 0
137 138 -141 0
-137 141 0
-138 141 0
139 141 -142 0
-139 142 0
-141 142 0
142 140 -132 0
-142 132 0
-140 132 0
120 143 0
-120 -143 0
121 144 0
-121 -144 0
-113 -143 146 0
113 -146 0
143 -146 0
-126 -120 147 0
126 -147 0
120 -147 0
-116 -143 148 0
116 -148 0
143 -148 0
-126 -120 149 0
126 -149 0
120 -149 0
-146 -144 150 0
146 -150 0
144 -150 0
-147 -121 151 0
147 -151 0
121 -151 0
-148 -144 152 0
148 -152 0
144 -152 0
-149 -121 153 0
149 -153 0
121 -153 0
150 151 -154 0
-150 154 0
-151 154 0
152 154 -155 0
-152 155 0
-154 155 0
155 153 -145 0
-155 145 0
-153 145 0
122 156 0
-122 -156 0
123 157 0
-123 -157 0
-113 -156 159 0
113 -159 0
156 -159 0
-126 -122 160 0
126 -160 0
122 -160 0
-116 -156 161 0
116 -161 0
156 -161 0
-126 -122 162 0
126 -162 0
122 -162 0
-159 -157 163 0
159 -163 0
157 -163 0
-160 -123 164 0
160 -164 0
123 -164 0
-161 -157 165 0
161 -165 0
157 -165 0
-162 -123 166 0
162 -166 0
123 -166 0
163 164 -167 0
-163 167 0
-164 167 0
165 167 -168 0
-165 168 0
-167 168 0
168 166 -158 0
-168 158 0
-166 158 0
6 -118 0
-6 118 0
7 -119 0
-7 119 0
8 -120 0
-8 120 0
9 -121 0
-9 121 0
10 -122 0
-10 122 0
11 -123 0
-11 123 0
-113 0
114 0
-115 0
-116 0
117 0
124 0
125 0
c New duplicated circuit:
-169 -171 -185 0
169 185 0
171 185 0
-171 -172 -182 0
171 182 0
172 182 0
-170 -201 -184 0
170 184 0
201 184 0
-173 -201 -183 0
173 183 0
201 183 0
-188 -184 -180 0
188 180 0
184 180 0
-183 -183 -181 0
183 181 0
183 181 0
174 186 0
-174 -186 0
175 187 0
-175 -187 0
-169 -186 189 0
169 -189 0
186 -189 0
-185 -174 190 0
185 -190 0
174 -190 0
-172 -186 191 0
172 -191 0
186 -191 0
-185 -174 192 0
185 -192 0
174 -192 0
-189 -187 193 0
189 -193 0
187 -193 0
-190 -175 194 0
190 -194 0
175 -194 0
-191 -187 195 0
191 -195 0
187 -195 0
-192 -175 196 0
192 -196 0
175 -196 0
193 194 -197 0
-193 197 0
-194 197 0
195 197 -198 0
-195 198 0
-197 198 0
198 196 -188 0
-198 188 0
-196 188 0
176 199 0
-176 -199 0
177 200 0
-177 -200 0
-169 -199 202 0
169 -202 0
199 -202 0
-182 -176 203 0
182 -203 0
176 -203 0
-172 -199 204 0
172 -204 0
199 -204 0
-182 -176 205 0
182 -205 0
176 -205 0
-202 -200 206 0
202 -206 0
200 -206 0
-203 -177 207 0
203 -207 0
177 -207 0
-204 -200 208 0
204 -208 0
200 -208 0
-205 -177 209 0
205 -209 0
177 -209 0
206 207 -210 0
-206 210 0
-207 210 0
208 210 -211 0
-208 211 0
-210 211 0
211 209 -201 0
-211 201 0
-209 201 0
178 212 0
-178 -212 0
179 213 0
-179 -213 0
-169 -212 215 0
169 -215 0
212 -215 0
-182 -178 216 0
182 -216 0
178 -216 0
-172 -212 217 0
172 -217 0
212 -217 0
-182 -178 218 0
182 -218 0
178 -218 0
-215 -213 219 0
215 -219 0
213 -219 0
-216 -179 220 0
216 -220 0
179 -220 0
-217 -213 221 0
217 -221 0
213 -221 0
-218 -179 222 0
218 -222 0
179 -222 0
219 220 -223 0
-219 223 0
-220 223 0
221 223 -224 0
-221 224 0
-223 224 0
224 222 -214 0
-224 214 0
-222 214 0
6 -174 0
-6 174 0
7 -175 0
-7 175 0
8 -176 0
-8 176 0
9 -177 0
-9 177 0
10 -178 0
-10 178 0
11 -179 0
-11 179 0
-169 0
-170 0
-171 0
-172 0
173 0
-180 0
181 0
